59395
1 1 1 1 1 1 1 1 1 1 1 1 1 1 1 1 1 0 1 1 1 1 1 1 1 1 0 1 1 1
7 20 1 15 9 13 8 3 24 5 9 22 0 14 3 2 14 16 29 5 16 16 4 19 16 18 21 22 3 2 11 12 7 2 2 16 7 16 16 10 14 25 12 7 3 5 15 15 22 19 3 13 5 4 24 13 2 9 19 1 10 11 3 25 15 23 5 14 27 5 29 22 19 8 5 15 13 22 3 14 5 12 11 7 20 5 4 2 24 25 9 4 0 27 29 4 2 8 11 28 6 9 28 11 27 19 22 28 13 9 25 16 21 21 7 11 10 8 11 18 0 10 28 13 1 11 21 20 8 2 23 12 23 9 16 28 5 5 18 1 6 22 19 15 6 7 9 8 11 9 8 11 16 22 2 27 0 24 12 0 23 20 28 15 10 13 2 10 25 23 2 14 24 20 12 10 24 18 27 4 7 4 28 22 28 15 29 4 28 29 16 8 12 20 8 10 4 14 27 8